(declare-const a Real)
(declare-const b Real)
(declare-const c Real)
(assert (= (* a b c) 1))
(assert (> a 0))
(assert (> b 0))
(assert (> c 0))
(assert (not (<= (+ (* (/ -19683 84951891136) (pow (+ (* (/ 1646 27) a) (* (/ 2750 27) b)) 4)) (* -128 (pow a (pow 3 -1)) (pow b (/ 11 3))) (* -64 (pow a (/ 10 3)) (pow b (/ 2 3))) (* 96 (pow a (/ 4 3)) (pow b (/ 8 3))) (* 96 (pow a (/ 5 3)) (pow b (/ 7 3))) (* (/ 212 9) (pow a 2) (pow b 2)) (* (/ 344 27) b (pow a 3)) (* (/ 3416 27) a (pow b 3))) 0)))
(check-sat)
(get-model)
(exit)